######### Automatically generated DAT file from nesta_case5_pjm.m #########
param case_name := "nesta_case5_pjm";
param mva_base := 100.0;
param ref_bus := 4;
param theta_bound :=  0.523598776;
set buses :=
1
2
3
4
5
;
set gens :=
0
1
2
3
4
;
set lines := 
1
2
3
4
5
6
;
set bus_gen :=
( 1 , 0 )
( 1 , 1 )
( 3 , 2 )
( 4 , 3 )
( 5 , 4 )
;
set buses_all :=
1
2
3
4
5
;
set gens_all :=
0
1
2
3
4
;
set lines_all := 
1
2
3
4
5
6
;
set bus_gen_all :=
( 1 , 0 )
( 1 , 1 )
( 3 , 2 )
( 4 , 3 )
( 5 , 4 )
;
set arcs_from := 
( 1 , 1 , 2 )
( 2 , 1 , 4 )
( 3 , 1 , 5 )
( 4 , 2 , 3 )
( 5 , 3 , 4 )
( 6 , 4 , 5 )
;
set arcs_to := 
( 1 , 2 , 1 )
( 2 , 4 , 1 )
( 3 , 5 , 1 )
( 4 , 3 , 2 )
( 5 , 4 , 3 )
( 6 , 5 , 4 )
;
set arcs_from_all := 
( 1 , 1 , 2 )
( 2 , 1 , 4 )
( 3 , 1 , 5 )
( 4 , 2 , 3 )
( 5 , 3 , 4 )
( 6 , 4 , 5 )
;
set arcs_to_all := 
( 1 , 2 , 1 )
( 2 , 4 , 1 )
( 3 , 5 , 1 )
( 4 , 3 , 2 )
( 5 , 4 , 3 )
( 6 , 5 , 4 )
;
param: load_p load_q v_min v_max shunt_g shunt_b kv_base load_flow_v load_flow_t bus_status :=
1	0.0	0.0	0.90000	1.10000	0.0	0.0	230.0	1.07762	0.0489350179686	1
2	3.0	0.9861	0.90000	1.10000	0.0	0.0	230.0	1.08407	-0.0128220613498	1
3	3.0	0.9861	0.90000	1.10000	0.0	0.0	230.0	1.1	-0.00976895688926	1
4	4.0	1.3147	0.90000	1.10000	0.0	0.0	230.0	1.06414	0.0	1
5	0.0	0.0	0.90000	1.10000	0.0	0.0	230.0	1.06907	0.0626630797331	1
;
param: gen_bus c0 c1 c2 p_min p_max q_min q_max load_flow_p load_flow_q gen_status :=
0	1	0.000000	14.000000	0.000000	0.0	0.4	-0.3	0.3	0.4	0.3	1
1	1	0.000000	15.000000	0.000000	0.0	1.7	-1.275	1.275	1.7	1.275	1
2	3	0.000000	30.000000	0.000000	0.0	5.2	-3.9	3.9	3.24498	3.9	1
3	4	0.000000	40.000000	0.000000	0.0	2.0	-1.5	1.5	0.0	-0.10802	1
4	5	0.000000	10.000000	0.000000	0.0	6.0	-4.5	4.5	4.70694	-1.65039	1
;
param: from_bus to_bus r x charge s tr as ad_min ad_max line_status :=
1	1	2	0.00281	0.0281	0.00712	4.0	1.0	0.0	-0.523598775598	0.523598775598	1
2	1	4	0.00304	0.0304	0.00658	4.26	1.0	0.0	-0.523598775598	0.523598775598	1
3	1	5	0.00064	0.0064	0.03126	4.26	1.0	0.0	-0.523598775598	0.523598775598	1
4	2	3	0.00108	0.0108	0.01852	4.26	1.0	0.0	-0.523598775598	0.523598775598	1
5	3	4	0.00297	0.0297	0.00674	4.26	1.0	0.0	-0.523598775598	0.523598775598	1
6	4	5	0.00297	0.0297	0.00674	2.4	1.0	0.0	-0.523598775598	0.523598775598	1
;
